SAT
-6 -12 46 -93 -100 -97 1 28 -21 27 -82 -85 56 14 9 -90 -64 79 95 91 -73 -94 30 96 86 -92 -78 -17 -58 -4 71 -76 57 -18 -34 -25 -62 -29 -32 70 -20 52 -51 -88 42 41 -60 22 26 61 59 -19 -77 -63 84 -74 -11 83 -55 -44 37 23 72 80 13 43 24 39 33 31 98 38 65 75 -3 99 81 -87 2 68 66 -35 8 -15 7 -45 -40 -53 -50 -47 -5 -48 16 67 49 10 -69 -54 -89 36 0
